(set-info :smt-lib-version 2.6)
(set-info :category "crafted")
(set-logic QF_FFA)
(define-sort FF0 () (_ FiniteField 52435875175126190479447740508185965837690552500527637822603658699938581184513))
(declare-fun e () Bool)
(declare-fun c () Bool)
(declare-fun d () Bool)
(declare-fun a () Bool)
(declare-fun b () Bool)
(declare-fun f () Bool)
(declare-fun return_n3 () FF0)
(declare-fun mul_n53 () FF0)
(declare-fun mul_n55 () FF0)
(declare-fun d_n1 () FF0)
(declare-fun mul_n8 () FF0)
(declare-fun mul_n54 () FF0)
(declare-fun mul_n14 () FF0)
(declare-fun e_n0 () FF0)
(declare-fun mul_n52 () FF0)
(declare-fun mul_n47 () FF0)
(declare-fun mul_n51 () FF0)
(declare-fun mul_n50 () FF0)
(declare-fun mul_n49 () FF0)
(declare-fun mul_n48 () FF0)
(declare-fun mul_n24 () FF0)
(declare-fun f_n5 () FF0)
(declare-fun mul_n39 () FF0)
(declare-fun mul_n22 () FF0)
(declare-fun mul_n46 () FF0)
(declare-fun mul_n7 () FF0)
(declare-fun mul_n38 () FF0)
(declare-fun mul_n40 () FF0)
(declare-fun mul_n45 () FF0)
(declare-fun mul_n44 () FF0)
(declare-fun mul_n43 () FF0)
(declare-fun mul_n42 () FF0)
(declare-fun mul_n41 () FF0)
(declare-fun c_n2 () FF0)
(declare-fun mul_n18 () FF0)
(declare-fun mul_n37 () FF0)
(declare-fun mul_n36 () FF0)
(declare-fun mul_n35 () FF0)
(declare-fun b_n4 () FF0)
(declare-fun mul_n34 () FF0)
(declare-fun mul_n33 () FF0)
(declare-fun mul_n29 () FF0)
(declare-fun mul_n32 () FF0)
(declare-fun mul_n15 () FF0)
(declare-fun mul_n31 () FF0)
(declare-fun mul_n30 () FF0)
(declare-fun mul_n26 () FF0)
(declare-fun mul_n25 () FF0)
(declare-fun mul_n28 () FF0)
(declare-fun mul_n27 () FF0)
(declare-fun mul_n10 () FF0)
(declare-fun mul_n23 () FF0)
(declare-fun mul_n16 () FF0)
(declare-fun a_n6 () FF0)
(declare-fun mul_n21 () FF0)
(declare-fun mul_n11 () FF0)
(declare-fun mul_n20 () FF0)
(declare-fun mul_n19 () FF0)
(declare-fun mul_n17 () FF0)
(declare-fun mul_n13 () FF0)
(declare-fun mul_n12 () FF0)
(declare-fun mul_n9 () FF0)
(assert 
  (let ((let0 e))
  (let ((let1 (not let0)))
  (let ((let2 (not let1)))
  (let ((let3 (not let2)))
  (let ((let4 c))
  (let ((let5 (not let4)))
  (let ((let6 (or let0 let4)))
  (let ((let7 (not let6)))
  (let ((let8 d))
  (let ((let9 a))
  (let ((let10 b))
  (let ((let11 (ite let10 let9 let8)))
  (let ((let12 (or let9 let4 let11)))
  (let ((let13 (= let12 let7)))
  (let ((let14 (or let1 let6 let13 let1)))
  (let ((let15 f))
  (let ((let16 (ite let15 let1 let10)))
  (let ((let17 (ite let16 let15 let11)))
  (let ((let18 (or let8 let17 let14)))
  (let ((let19 (and let12 let18 let8 let13 let5)))
  (let ((let20 (ite let9 let10 let17)))
  (let ((let21 (=> let20 let17)))
  (let ((let22 (=> let18 let20)))
  (let ((let23 (=> let12 let19)))
  (let ((let24 (or let23 let16 let5 let22)))
  (let ((let25 (and let23 let23 let13 let16 let24 let21 let10 let19 let2 let18)))
  (let ((let26 (ite let4 let25 let19)))
  (let ((let27 (= let7 let25)))
  (let ((let28 (and let21 let7 let2 let2 let7)))
  (let ((let29 (and let27 let28 let27 let26)))
  (let ((let30 (not let29)))
  (let ((let31 (or let15 let21 let1 let14)))
  (let ((let32 (= let31 let14)))
  (let ((let33 (and let32 let30 let3)))
  (let ((let34 (and let14 let8 let11)))
  (let ((let35 (and let34 let33)))
  (let ((let36 return_n3))
  (let ((let37 (as ff1 FF0)))
  (let ((let38 (= let37 let36)))
  (let ((let39 (= let38 let35)))
  (let ((let40 (as ff0 FF0)))
  (let ((let41 (= let40 let36)))
  (let ((let42 (or let38 let41)))
  (let ((let43 (and let42 let39)))
  (let ((let44 mul_n53))
  (let ((let45 mul_n55))
  (let ((let46 (ff.mul let45 let44)))
  (let ((let47 (= let46 let36)))
  (let ((let48 d_n1))
  (let ((let49 mul_n8))
  (let ((let50 (ff.add let49 let48)))
  (let ((let51 mul_n54))
  (let ((let52 (ff.mul let51 let50)))
  (let ((let53 (= let52 let45)))
  (let ((let54 (as ff52435875175126190479447740508185965837690552500527637822603658699938581184512 FF0)))
  (let ((let55 mul_n14))
  (let ((let56 (ff.mul let55 let54)))
  (let ((let57 (ff.add let56 let37)))
  (let ((let58 (ff.mul let57 let48)))
  (let ((let59 (= let58 let51)))
  (let ((let60 e_n0))
  (let ((let61 (ff.mul let60 let54)))
  (let ((let62 (ff.add let61 let37)))
  (let ((let63 mul_n52))
  (let ((let64 (ff.mul let63 let62)))
  (let ((let65 (= let64 let44)))
  (let ((let66 mul_n47))
  (let ((let67 (ff.mul let66 let54)))
  (let ((let68 (ff.add let67 let37)))
  (let ((let69 mul_n51))
  (let ((let70 mul_n50))
  (let ((let71 (ff.add let55 let70 let69 let54)))
  (let ((let72 (ff.mul let71 let68)))
  (let ((let73 (= let72 let63)))
  (let ((let74 (as ff2 FF0)))
  (let ((let75 (as ff52435875175126190479447740508185965837690552500527637822603658699938581184511 FF0)))
  (let ((let76 (ff.mul let70 let75)))
  (let ((let77 (ff.add let76 let74)))
  (let ((let78 (ff.mul let77 let57)))
  (let ((let79 (= let78 let69)))
  (let ((let80 mul_n49))
  (let ((let81 (ff.mul let80 let55)))
  (let ((let82 (= let81 let70)))
  (let ((let83 mul_n48))
  (let ((let84 (ff.mul let83 let60)))
  (let ((let85 (= let84 let80)))
  (let ((let86 mul_n24))
  (let ((let87 f_n5))
  (let ((let88 (ff.mul let87 let54)))
  (let ((let89 (ff.add let88 let37)))
  (let ((let90 (ff.mul let89 let86)))
  (let ((let91 (= let90 let83)))
  (let ((let92 mul_n39))
  (let ((let93 mul_n22))
  (let ((let94 (ff.add let93 let92)))
  (let ((let95 mul_n46))
  (let ((let96 (ff.mul let95 let94)))
  (let ((let97 (= let96 let66)))
  (let ((let98 mul_n7))
  (let ((let99 (ff.mul let98 let54)))
  (let ((let100 mul_n38))
  (let ((let101 (ff.mul let100 let54)))
  (let ((let102 mul_n40))
  (let ((let103 (ff.add let102 let101 let99 let37)))
  (let ((let104 mul_n45))
  (let ((let105 (ff.mul let104 let103)))
  (let ((let106 (= let105 let95)))
  (let ((let107 mul_n44))
  (let ((let108 (ff.mul let103 let107)))
  (let ((let109 (= let108 let104)))
  (let ((let110 mul_n43))
  (let ((let111 (ff.mul let110 let98)))
  (let ((let112 (= let111 let107)))
  (let ((let113 mul_n42))
  (let ((let114 (ff.mul let113 let60)))
  (let ((let115 (= let114 let110)))
  (let ((let116 mul_n41))
  (let ((let117 (ff.mul let116 let60)))
  (let ((let118 (= let117 let113)))
  (let ((let119 (ff.mul let86 let54)))
  (let ((let120 (ff.add let119 let37)))
  (let ((let121 (ff.mul let120 let98)))
  (let ((let122 (= let121 let116)))
  (let ((let123 (ff.mul let98 let74)))
  (let ((let124 (ff.mul let123 let100)))
  (let ((let125 (= let124 let102)))
  (let ((let126 (ff.mul let93 let54)))
  (let ((let127 (ff.add let100 let126)))
  (let ((let128 c_n2))
  (let ((let129 (ff.mul let128 let127)))
  (let ((let130 (= let129 let92)))
  (let ((let131 mul_n18))
  (let ((let132 (ff.mul let131 let54)))
  (let ((let133 (ff.add let132 let37)))
  (let ((let134 mul_n37))
  (let ((let135 (ff.mul let134 let133)))
  (let ((let136 (= let135 let100)))
  (let ((let137 mul_n36))
  (let ((let138 (ff.mul let137 let60)))
  (let ((let139 (= let138 let134)))
  (let ((let140 mul_n35))
  (let ((let141 (ff.mul let140 let93)))
  (let ((let142 (= let141 let137)))
  (let ((let143 b_n4))
  (let ((let144 mul_n34))
  (let ((let145 (ff.mul let144 let143)))
  (let ((let146 (= let145 let140)))
  (let ((let147 mul_n33))
  (let ((let148 (ff.mul let147 let120)))
  (let ((let149 (= let148 let144)))
  (let ((let150 mul_n29))
  (let ((let151 (ff.mul let150 let54)))
  (let ((let152 (ff.add let151 let37)))
  (let ((let153 mul_n32))
  (let ((let154 (ff.mul let153 let152)))
  (let ((let155 (= let154 let147)))
  (let ((let156 mul_n15))
  (let ((let157 (ff.add let143 let156)))
  (let ((let158 mul_n31))
  (let ((let159 (ff.mul let158 let157)))
  (let ((let160 (= let159 let153)))
  (let ((let161 mul_n30))
  (let ((let162 mul_n26))
  (let ((let163 (ff.mul let162 let54)))
  (let ((let164 (ff.add let163 let37)))
  (let ((let165 (ff.mul let164 let164)))
  (let ((let166 (= let165 let161)))
  (let ((let167 mul_n25))
  (let ((let168 mul_n28))
  (let ((let169 (ff.mul let168 let167)))
  (let ((let170 (= let169 let150)))
  (let ((let171 mul_n27))
  (let ((let172 (ff.mul let171 let128)))
  (let ((let173 (= let172 let168)))
  (let ((let174 (ff.mul let156 let54)))
  (let ((let175 (ff.mul let143 let54)))
  (let ((let176 (ff.add let175 let174 let37)))
  (let ((let177 (ff.mul let162 let176)))
  (let ((let178 (= let177 let171)))
  (let ((let179 (ff.add let126 let37)))
  (let ((let180 mul_n10))
  (let ((let181 (ff.mul let180 let54)))
  (let ((let182 (ff.add let181 let37)))
  (let ((let183 (ff.mul let182 let179)))
  (let ((let184 (= let183 let162)))
  (let ((let185 (ff.mul let48 let54)))
  (let ((let186 mul_n23))
  (let ((let187 (ff.mul let186 let54)))
  (let ((let188 (ff.mul let49 let54)))
  (let ((let189 mul_n16))
  (let ((let190 (ff.mul let189 let54)))
  (let ((let191 (ff.add let190 let188 let187 let185 let37)))
  (let ((let192 (ff.mul let133 let191)))
  (let ((let193 (= let192 let167)))
  (let ((let194 (ff.add let190 let188 let185 let37)))
  (let ((let195 (ff.add let189 let49 let186 let48)))
  (let ((let196 (ff.mul let195 let194)))
  (let ((let197 (= let196 let86)))
  (let ((let198 (ff.add let190 let188 let143 let185)))
  (let ((let199 a_n6))
  (let ((let200 (ff.mul let199 let198)))
  (let ((let201 (= let200 let186)))
  (let ((let202 (ff.mul let128 let54)))
  (let ((let203 (ff.add let202 let37)))
  (let ((let204 mul_n21))
  (let ((let205 (ff.mul let204 let203)))
  (let ((let206 (= let205 let93)))
  (let ((let207 mul_n11))
  (let ((let208 (ff.add let99 let180 let207)))
  (let ((let209 mul_n20))
  (let ((let210 (ff.mul let209 let208)))
  (let ((let211 (= let210 let204)))
  (let ((let212 mul_n19))
  (let ((let213 (ff.mul let212 let48)))
  (let ((let214 (= let213 let209)))
  (let ((let215 (ff.mul let182 let133)))
  (let ((let216 (= let215 let212)))
  (let ((let217 mul_n17))
  (let ((let218 (ff.mul let217 let55)))
  (let ((let219 (= let218 let131)))
  (let ((let220 (ff.add let185 let37)))
  (let ((let221 (ff.mul let220 let194)))
  (let ((let222 (= let221 let217)))
  (let ((let223 (ff.add let188 let87 let185)))
  (let ((let224 (ff.mul let157 let223)))
  (let ((let225 (= let224 let189)))
  (let ((let226 (ff.add let61 let175 let37)))
  (let ((let227 (ff.mul let87 let226)))
  (let ((let228 (= let227 let156)))
  (let ((let229 mul_n13))
  (let ((let230 (ff.mul let229 let60)))
  (let ((let231 (= let230 let55)))
  (let ((let232 (ff.mul let207 let54)))
  (let ((let233 (ff.add let232 let181 let98 let37)))
  (let ((let234 mul_n12))
  (let ((let235 (ff.mul let234 let233)))
  (let ((let236 (= let235 let229)))
  (let ((let237 (ff.mul let60 let98)))
  (let ((let238 (= let237 let234)))
  (let ((let239 (ff.mul let180 let75)))
  (let ((let240 (ff.add let239 let74)))
  (let ((let241 (ff.mul let240 let98)))
  (let ((let242 (= let241 let207)))
  (let ((let243 (ff.add let188 let185 let37)))
  (let ((let244 mul_n9))
  (let ((let245 (ff.mul let244 let243)))
  (let ((let246 (= let245 let180)))
  (let ((let247 (ff.mul let199 let54)))
  (let ((let248 (ff.add let247 let37)))
  (let ((let249 (ff.mul let248 let203)))
  (let ((let250 (= let249 let244)))
  (let ((let251 (ff.add let185 let199)))
  (let ((let252 (ff.mul let143 let251)))
  (let ((let253 (= let252 let49)))
  (let ((let254 (ff.mul let62 let203)))
  (let ((let255 (= let254 let98)))
  (let ((let256 (and let255 let253 let250 let246 let242 let238 let236 let231 let228 let225 let222 let219 let216 let214 let211 let206 let201 let197 let193 let184 let178 let173 let170 let166 let160 let155 let149 let146 let142 let139 let136 let130 let125 let122 let118 let115 let112 let109 let106 let97 let91 let85 let82 let79 let73 let65 let59 let53 let47)))
  (let ((let257 (ite let15 let37 let40)))
  (let ((let258 (= let87 let257)))
  (let ((let259 (ite let0 let37 let40)))
  (let ((let260 (= let60 let259)))
  (let ((let261 (ite let9 let37 let40)))
  (let ((let262 (= let199 let261)))
  (let ((let263 (ite let8 let37 let40)))
  (let ((let264 (= let48 let263)))
  (let ((let265 (ite let10 let37 let40)))
  (let ((let266 (= let143 let265)))
  (let ((let267 (ite let4 let37 let40)))
  (let ((let268 (= let128 let267)))
  (let ((let269 (and let268 let266 let264 let262 let260 let258)))
  (let ((let270 (and let269 let256)))
  (let ((let271 (=> let270 let43)))
  (let ((let272 (not let271)))
  let272
)))))))))))))))))))))))))))))))))))))))))))))))))))))))))))))))))))))))))))))))))))))))))))))))))))))))))))))))))))))))))))))))))))))))))))))))))))))))))))))))))))))))))))))))))))))))))))))))))))))))))))))))))))))))))))))))))))))))))))))))))))))))))))))))))))))))))))))))))
)
(check-sat)
